results/x-long/X-n157-k13.vrp_seed-40.vrp.sol
Route #1: 131 133 50 154 98 123 53 144 85 140 31 23
Route #2: 15 147 118 75 20 68 36 93 99 69 122 38
Route #3: 126 1 117 9 108 40 80 146 78 125 139 70
Route #4: 49 14 120 26 128 142 62 97 87 65 103 16
Route #5: 143 32 42 3 106 73 135 21 121 54 110 41
Route #6: 34 138 25 155 22 30 74 79 84 33 48 72
Route #7: 12 60 109 114 29 58 39 10 134 52 107 18
Route #8: 71 149 8 150 156 24 43 141 64 63 13 148
Route #9: 92 137 7 28 66 94 86 111 132 102 96 59
Route #10: 129 91 100 51 90 83 45 77 11 82 113 151
Route #11: 47 5 153 76 136 112 89 81 119 2 57 88
Route #12: 61 56 152 105 95 55 115 6 35 4 67 17
Route #13: 37 116 19 46 145 127 104 130 124 44 27 101
Cost 16876.000000